10	5
0	4	4	2	3	1
1	2	6	9
2	2	9	7
3	0
4	2	7	9
5	1	10
6	0
7	2	5	6
8	1	5
9	1	8
10	1	11
11	0
0	0	0	0	0	0	0
1	3	3	1	5	1	2
2	3	5	2	4	1	4
3	6	5	3	5	1	4
4	10	4	4	4	4	4
5	10	1	5	5	2	3
6	7	2	5	3	4	3
7	5	2	2	4	1	2
8	7	2	3	1	3	1
9	8	5	4	3	2	2
10	1	4	4	4	5	3
11	0	0	0	0	0	0
10	7	9	6	9
